Au Pd                                   
   1.00000000000000     
    11.8117959506111045    0.0000000000000000    0.0000000000000000
     5.9058979753055514   10.2293153575473781    0.0000000000000000
     0.0000000000000000    0.0000000000000000   27.2332182562174445
   Au   Pd
    64     3
Selective dynamics
Direct
  0.3281835913664621  0.3310799638323708  0.6335772558994515   T   T   T
  0.0893565832493086  0.0804029047903485  0.6329264631349532   T   T   T
  0.0850502464757426  0.3336652564720631  0.6329089407324402   T   T   T
  0.3330558721144838  0.0818508267028902  0.6328578864492466   T   T   T
  0.3333333333333357  0.3333333333333357  0.3671986140571875   F   F   F
  0.0833333333333357  0.0833333333333357  0.3671986140571875   F   F   F
  0.0833333333333357  0.3333333333333357  0.3671986140571875   F   F   F
  0.3333333333333357  0.0833333333333357  0.3671986140571875   F   F   F
  0.1666666666666643  0.1666666666666643  0.4557328713523958   F   F   F
  0.4166666666666643  0.4166666666666643  0.4557328713523958   F   F   F
  0.4166666666666643  0.1666666666666643  0.4557328713523958   F   F   F
  0.1666666666666643  0.4166666666666643  0.4557328713523958   F   F   F
  0.0010816802367252 -0.0011239691898028  0.5432669581751753   T   T   T
  0.2505175149567977  0.2503043997156831  0.5435810332567376   T   T   T
  0.2508245196425610 -0.0002554851946183  0.5428235731687673   T   T   T
  0.0011275193529177  0.2500424293431436  0.5434140741452244   T   T   T
  0.3325035452789341  0.8366974102141619  0.6329257476607718   T   T   T
  0.0819426520473105  0.5837924806032402  0.6330856871898609   T   T   T
  0.0841731240385699  0.8319888582800771  0.6329186039635506   T   T   T
  0.3266568843425369  0.5931213777746530  0.6327051500866674   T   T   T
  0.3333333333333357  0.8333333333333357  0.3671986140571875   F   F   F
  0.0833333333333357  0.5833333333333357  0.3671986140571875   F   F   F
  0.0833333333333357  0.8333333333333357  0.3671986140571875   F   F   F
  0.3333333333333357  0.5833333333333357  0.3671986140571875   F   F   F
  0.1666666666666643  0.6666666666666643  0.4557328713523958   F   F   F
  0.4166666666666643  0.9166666666666643  0.4557328713523958   F   F   F
  0.4166666666666643  0.6666666666666643  0.4557328713523958   F   F   F
  0.1666666666666643  0.9166666666666643  0.4557328713523958   F   F   F
  0.9995686162892234  0.5004400880933951  0.5434114392201926   T   T   T
  0.2501450112644925  0.7498521484104358  0.5433393526935607   T   T   T
  0.2504262391705437  0.4996265880733899  0.5439268603839793   T   T   T
  0.9995842562806323  0.7498882299472804  0.5434827729013639   T   T   T
  0.8468633734156894  0.3290538932235106  0.6325114712186951   T   T   T
  0.5812726441342437  0.0785783545514924  0.6349060094300273   T   T   T
  0.5927114201921534  0.3306574467236628  0.6241292930085566   T   T   T
  0.8463860743766128  0.0739749060007021  0.6322424849815020   T   T   T
  0.8333333333333357  0.3333333333333357  0.3671986140571875   F   F   F
  0.5833333333333357  0.0833333333333357  0.3671986140571875   F   F   F
  0.5833333333333357  0.3333333333333357  0.3671986140571875   F   F   F
  0.8333333333333357  0.0833333333333357  0.3671986140571875   F   F   F
  0.6666666666666643  0.1666666666666643  0.4557328713523958   F   F   F
  0.9166666666666643  0.4166666666666643  0.4557328713523958   F   F   F
  0.9166666666666643  0.1666666666666643  0.4557328713523958   F   F   F
  0.6666666666666643  0.4166666666666643  0.4557328713523958   F   F   F
  0.5008307771320586  0.0003439814746702  0.5439661782401770   T   T   T
  0.7540240769252666  0.2479380918110060  0.5418341145633031   T   T   T
  0.7491920209581850  0.0002269618717386  0.5440610339869620   T   T   T
  0.4993850025269881  0.2492953897835499  0.5435192415499525   T   T   T
  0.8337318626542113  0.8318091129080127  0.6334213400586747   T   T   T
  0.5800831136917225  0.5927732739017617  0.6344427221746054   T   T   T
  0.5838075380798281  0.8339074520970523  0.6332112582276844   T   T   T
  0.8337507809086926  0.5841436553191202  0.6335653880274379   T   T   T
  0.8333333333333357  0.8333333333333357  0.3671986140571875   F   F   F
  0.5833333333333357  0.5833333333333357  0.3671986140571875   F   F   F
  0.5833333333333357  0.8333333333333357  0.3671986140571875   F   F   F
  0.8333333333333357  0.5833333333333357  0.3671986140571875   F   F   F
  0.6666666666666643  0.6666666666666643  0.4557328713523958   F   F   F
  0.9166666666666643  0.9166666666666643  0.4557328713523958   F   F   F
  0.9166666666666643  0.6666666666666643  0.4557328713523958   F   F   F
  0.6666666666666643  0.9166666666666643  0.4557328713523958   F   F   F
  0.4992578445362003  0.5017257884857406  0.5431132382381946   T   T   T
  0.7501733602396504  0.7498141104712014  0.5435547561062105   T   T   T
  0.7493495733284815  0.5004022237566695  0.5441415434839469   T   T   T
  0.5007553313824334  0.7494067518457527  0.5439300623338563   T   T   T
  0.6720458325569147  0.4091407042948600  0.7071072261298491   T   T   T
  0.4367471417194357  0.4101370042805604  0.7044412925099014   T   T   T
  0.6719898341058420  0.1757342089086189  0.7067222320038566   T   T   T
 
  0.00000000E+00  0.00000000E+00  0.00000000E+00
  0.00000000E+00  0.00000000E+00  0.00000000E+00
  0.00000000E+00  0.00000000E+00  0.00000000E+00
  0.00000000E+00  0.00000000E+00  0.00000000E+00
  0.00000000E+00  0.00000000E+00  0.00000000E+00
  0.00000000E+00  0.00000000E+00  0.00000000E+00
  0.00000000E+00  0.00000000E+00  0.00000000E+00
  0.00000000E+00  0.00000000E+00  0.00000000E+00
  0.00000000E+00  0.00000000E+00  0.00000000E+00
  0.00000000E+00  0.00000000E+00  0.00000000E+00
  0.00000000E+00  0.00000000E+00  0.00000000E+00
  0.00000000E+00  0.00000000E+00  0.00000000E+00
  0.00000000E+00  0.00000000E+00  0.00000000E+00
  0.00000000E+00  0.00000000E+00  0.00000000E+00
  0.00000000E+00  0.00000000E+00  0.00000000E+00
  0.00000000E+00  0.00000000E+00  0.00000000E+00
  0.00000000E+00  0.00000000E+00  0.00000000E+00
  0.00000000E+00  0.00000000E+00  0.00000000E+00
  0.00000000E+00  0.00000000E+00  0.00000000E+00
  0.00000000E+00  0.00000000E+00  0.00000000E+00
  0.00000000E+00  0.00000000E+00  0.00000000E+00
  0.00000000E+00  0.00000000E+00  0.00000000E+00
  0.00000000E+00  0.00000000E+00  0.00000000E+00
  0.00000000E+00  0.00000000E+00  0.00000000E+00
  0.00000000E+00  0.00000000E+00  0.00000000E+00
  0.00000000E+00  0.00000000E+00  0.00000000E+00
  0.00000000E+00  0.00000000E+00  0.00000000E+00
  0.00000000E+00  0.00000000E+00  0.00000000E+00
  0.00000000E+00  0.00000000E+00  0.00000000E+00
  0.00000000E+00  0.00000000E+00  0.00000000E+00
  0.00000000E+00  0.00000000E+00  0.00000000E+00
  0.00000000E+00  0.00000000E+00  0.00000000E+00
  0.00000000E+00  0.00000000E+00  0.00000000E+00
  0.00000000E+00  0.00000000E+00  0.00000000E+00
  0.00000000E+00  0.00000000E+00  0.00000000E+00
  0.00000000E+00  0.00000000E+00  0.00000000E+00
  0.00000000E+00  0.00000000E+00  0.00000000E+00
  0.00000000E+00  0.00000000E+00  0.00000000E+00
  0.00000000E+00  0.00000000E+00  0.00000000E+00
  0.00000000E+00  0.00000000E+00  0.00000000E+00
  0.00000000E+00  0.00000000E+00  0.00000000E+00
  0.00000000E+00  0.00000000E+00  0.00000000E+00
  0.00000000E+00  0.00000000E+00  0.00000000E+00
  0.00000000E+00  0.00000000E+00  0.00000000E+00
  0.00000000E+00  0.00000000E+00  0.00000000E+00
  0.00000000E+00  0.00000000E+00  0.00000000E+00
  0.00000000E+00  0.00000000E+00  0.00000000E+00
  0.00000000E+00  0.00000000E+00  0.00000000E+00
  0.00000000E+00  0.00000000E+00  0.00000000E+00
  0.00000000E+00  0.00000000E+00  0.00000000E+00
  0.00000000E+00  0.00000000E+00  0.00000000E+00
  0.00000000E+00  0.00000000E+00  0.00000000E+00
  0.00000000E+00  0.00000000E+00  0.00000000E+00
  0.00000000E+00  0.00000000E+00  0.00000000E+00
  0.00000000E+00  0.00000000E+00  0.00000000E+00
  0.00000000E+00  0.00000000E+00  0.00000000E+00
  0.00000000E+00  0.00000000E+00  0.00000000E+00
  0.00000000E+00  0.00000000E+00  0.00000000E+00
  0.00000000E+00  0.00000000E+00  0.00000000E+00
  0.00000000E+00  0.00000000E+00  0.00000000E+00
  0.00000000E+00  0.00000000E+00  0.00000000E+00
  0.00000000E+00  0.00000000E+00  0.00000000E+00
  0.00000000E+00  0.00000000E+00  0.00000000E+00
  0.00000000E+00  0.00000000E+00  0.00000000E+00
  0.00000000E+00  0.00000000E+00  0.00000000E+00
  0.00000000E+00  0.00000000E+00  0.00000000E+00
  0.00000000E+00  0.00000000E+00  0.00000000E+00
